c instance by G2
c solution = 00111000011001000111010
c Known solution cost is 1322 
p cnf 23 30
w 92 52 51 58 31 94 20 43 19 44 76 59 68 38 9 10 94 83 93 93 63 92 40
-10 -9 21 0
17 10 9 0
9 -5 -15 0
11 15 21 0
9 -14 -13 0
-22 14 -10 0
-5 -23 -18 0
6 9 4 0
9 -7 -23 0
-15 20 -13 0
-19 -16 -5 0
15 -7 -10 0
6 8 -17 0
-11 -18 -8 0
15 3 12 0
-2 7 -3 0
-12 -19 -3 0
15 16 18 0
-16 -1 -7 0
-7 -6 19 0
21 -1 -4 0
-11 -17 -19 0
-19 22 23 0
-7 -14 17 0
23 -18 19 0
-6 2 -4 0
1 13 -21 0
20 13 -10 0
22 -5 21 0
5 2 12 0
